
c turning on binary mode checking

c parsing input formula with 15395 variables and 44896 clauses

c finished parsing, read 4071 bytes from proof file

c detected empty clause; start verification via backward checking

c 341 of 44896 clauses in core                            

c 43 of 735 lemmas in core using 386 resolution steps

c 0 RAT lemmas in core; 0 redundant literals in core lemmas

s VERIFIED

c verification time: 0.070 seconds
